# http://en.wikipedia.org/wiki/Survo_Puzzle, second example
param r := 2;
param c := 3;

param rowsums :=
   1  9
   2 12
;

param colsums :=
   1 9
   2 7
   3 5
;

param matrix: 1 2 3 :=
   1  0 0 3
   2  0 6 0
;
